5 5
3 4 2 24 4 59 1 99 0 3
4 68 0 40 2 48 1 54 3 35
3 95 0 56 2 89 4 40 1 77
0 68 3 46 1 78 4 13 2 27
1 6 0 17 2 36 3 99 4 81
-1
0 2 5
0 1 4 5
0 3 5
0 2 4 5
0 3 4 5
-2
39 258
91 244 314
343 394
117 233 300
63 219 246

423 10
15 21 11 4 6
20 3 17 8 14
1 22 12 7 19
0 10 16 23 9
2 5 18 13 24
